ilp_joint/output/refraction_ilp.lp
Maximize
  0.00522629883039154 Z_274_0_0 + 0.75672323672597 Z_274_0_1
   + 0.0318257652180185 Z_274_0_2 + 0.00111092822742952 Z_274_0_3
   + 0.1051137709981905 Z_274_0_4 + 0.00419871156063477 Z_396_0_0
   + 0.3811511093579019 Z_396_0_1 + 0.1032888394578568 Z_396_0_2
   + 0.00917764033488631 Z_396_0_3 + 0.4021836992887202 Z_396_0_4
   + 0.0410628667741777 Z_446_7_0 + 0.01874747604501 Z_446_7_1
   + 0.00796518623196376 Z_446_7_2 + 0.0241654317671957 Z_446_7_3
   + 0.8080590391816528 Z_446_7_4 + 0.00133687861063132 Z_446_2_0
   + 0.00412793755179133 Z_446_2_1 + 0.00744311491027429 Z_446_2_2
   + 0.00525725011609564 Z_446_2_3 + 0.8818348188112074 Z_446_2_4
   + 0.00133687861063132 Z_446_6_0 + 0.00412793755179133 Z_446_6_1
   + 0.00744311491027429 Z_446_6_2 + 0.00525725011609564 Z_446_6_3
   + 0.8818348188112074 Z_446_6_4 + 0.00577341737630333 Z_446_1_0
   + 0.00297506821363334 Z_446_1_1 + 0.00728096881863181 Z_446_1_2
   + 0.00529546353186218 Z_446_1_3 + 0.8786750820595693 Z_446_1_4
   + 0.0014906851137183 Z_446_0_0 + 7.3252574927253013e-04 Z_446_0_1
   + 0.010022131146529 Z_446_0_2 + 0.00502504921675038 Z_446_0_3
   + 0.8827296087737299 Z_446_0_4 + 0.00866796640439463 Z_446_8_0
   + 0.0599057559847845 Z_446_8_1 + 0.00847473891618669 Z_446_8_2
   + 0.00468880986275742 Z_446_8_3 + 0.8182627288318769 Z_446_8_4
   + 0.00214120437387019 Z_446_3_0 + 0.0142201595791269 Z_446_3_1
   + 0.0727170472022482 Z_446_3_2 + 0.0181720339524619 Z_446_3_3
   + 0.7927495548922927 Z_446_3_4 + 0.4219953974803662 Z_446_5_0
   + 0.1356138630888359 Z_446_5_1 + 0.00261228426565952 Z_446_5_2
   + 0.0504278040297906 Z_446_5_3 + 0.289350651135348 Z_446_5_4
   + 0.00214120437387019 Z_446_4_0 + 0.0142201595791269 Z_446_4_1
   + 0.0727170472022482 Z_446_4_2 + 0.0181720339524619 Z_446_4_3
   + 0.7927495548922927 Z_446_4_4 + [ 0.4 Z_274_0_0 * Z_396_0_0
   + 0.0558224347575904 Z_274_0_0 * Z_446_2_0
   + 4.14601e-05 Z_274_0_0 * Z_446_6_0
   + 0.1301393740664488 Z_274_0_0 * Z_446_8_0
   + 0.0136271376981765 Z_274_0_0 * Z_446_3_0
   + 7.1168328764378071e-04 Z_274_0_0 * Z_446_5_0
   + 0.0136271376981765 Z_274_0_0 * Z_446_4_0 + 0.4 Z_274_0_1 * Z_396_0_1
   + 0.0558224347575904 Z_274_0_1 * Z_446_2_1
   + 4.14601e-05 Z_274_0_1 * Z_446_6_1
   + 0.1301393740664488 Z_274_0_1 * Z_446_8_1
   + 0.0136271376981765 Z_274_0_1 * Z_446_3_1
   + 7.1168328764378071e-04 Z_274_0_1 * Z_446_5_1
   + 0.0136271376981765 Z_274_0_1 * Z_446_4_1 + 0.4 Z_274_0_2 * Z_396_0_2
   + 0.0558224347575904 Z_274_0_2 * Z_446_2_2
   + 4.14601e-05 Z_274_0_2 * Z_446_6_2
   + 0.1301393740664488 Z_274_0_2 * Z_446_8_2
   + 0.0136271376981765 Z_274_0_2 * Z_446_3_2
   + 7.1168328764378071e-04 Z_274_0_2 * Z_446_5_2
   + 0.0136271376981765 Z_274_0_2 * Z_446_4_2 + 0.4 Z_274_0_3 * Z_396_0_3
   + 0.0558224347575904 Z_274_0_3 * Z_446_2_3
   + 4.14601e-05 Z_274_0_3 * Z_446_6_3
   + 0.1301393740664488 Z_274_0_3 * Z_446_8_3
   + 0.0136271376981765 Z_274_0_3 * Z_446_3_3
   + 7.1168328764378071e-04 Z_274_0_3 * Z_446_5_3
   + 0.0136271376981765 Z_274_0_3 * Z_446_4_3 + 0.4 Z_274_0_4 * Z_396_0_4
   + 0.0558224347575904 Z_274_0_4 * Z_446_2_4
   + 4.14601e-05 Z_274_0_4 * Z_446_6_4
   + 0.1301393740664488 Z_274_0_4 * Z_446_8_4
   + 0.0136271376981765 Z_274_0_4 * Z_446_3_4
   + 7.1168328764378071e-04 Z_274_0_4 * Z_446_5_4
   + 0.0136271376981765 Z_274_0_4 * Z_446_4_4
   + 0.0558224347575904 Z_396_0_0 * Z_446_2_0
   + 2.473e-05 Z_396_0_0 * Z_446_6_0
   + 0.1301393740664488 Z_396_0_0 * Z_446_8_0
   + 0.00812828345624559 Z_396_0_0 * Z_446_3_0
   + 4.2450319510717755e-04 Z_396_0_0 * Z_446_5_0
   + 0.00812828345624559 Z_396_0_0 * Z_446_4_0
   + 0.0558224347575904 Z_396_0_1 * Z_446_2_1
   + 2.473e-05 Z_396_0_1 * Z_446_6_1
   + 0.1301393740664488 Z_396_0_1 * Z_446_8_1
   + 0.00812828345624559 Z_396_0_1 * Z_446_3_1
   + 4.2450319510717755e-04 Z_396_0_1 * Z_446_5_1
   + 0.00812828345624559 Z_396_0_1 * Z_446_4_1
   + 0.0558224347575904 Z_396_0_2 * Z_446_2_2
   + 2.473e-05 Z_396_0_2 * Z_446_6_2
   + 0.1301393740664488 Z_396_0_2 * Z_446_8_2
   + 0.00812828345624559 Z_396_0_2 * Z_446_3_2
   + 4.2450319510717755e-04 Z_396_0_2 * Z_446_5_2
   + 0.00812828345624559 Z_396_0_2 * Z_446_4_2
   + 0.0558224347575904 Z_396_0_3 * Z_446_2_3
   + 2.473e-05 Z_396_0_3 * Z_446_6_3
   + 0.1301393740664488 Z_396_0_3 * Z_446_8_3
   + 0.00812828345624559 Z_396_0_3 * Z_446_3_3
   + 4.2450319510717755e-04 Z_396_0_3 * Z_446_5_3
   + 0.00812828345624559 Z_396_0_3 * Z_446_4_3
   + 0.0558224347575904 Z_396_0_4 * Z_446_2_4
   + 2.473e-05 Z_396_0_4 * Z_446_6_4
   + 0.1301393740664488 Z_396_0_4 * Z_446_8_4
   + 0.00812828345624559 Z_396_0_4 * Z_446_3_4
   + 4.2450319510717755e-04 Z_396_0_4 * Z_446_5_4
   + 0.00812828345624559 Z_396_0_4 * Z_446_4_4 ] / 2 
Subject To
 constraint1_2740: Z_274_0_0 + Z_274_0_1 + Z_274_0_2 + Z_274_0_3
   + Z_274_0_4 <= 1
 constraint1_3960: Z_396_0_0 + Z_396_0_1 + Z_396_0_2 + Z_396_0_3
   + Z_396_0_4 <= 1
 constraint1_4467: Z_446_7_0 + Z_446_7_1 + Z_446_7_2 + Z_446_7_3
   + Z_446_7_4 <= 1
 constraint1_4462: Z_446_2_0 + Z_446_2_1 + Z_446_2_2 + Z_446_2_3
   + Z_446_2_4 <= 1
 constraint1_4466: Z_446_6_0 + Z_446_6_1 + Z_446_6_2 + Z_446_6_3
   + Z_446_6_4 <= 1
 constraint1_4461: Z_446_1_0 + Z_446_1_1 + Z_446_1_2 + Z_446_1_3
   + Z_446_1_4 <= 1
 constraint1_4460: Z_446_0_0 + Z_446_0_1 + Z_446_0_2 + Z_446_0_3
   + Z_446_0_4 <= 1
 constraint1_4468: Z_446_8_0 + Z_446_8_1 + Z_446_8_2 + Z_446_8_3
   + Z_446_8_4 <= 1
 constraint1_4463: Z_446_3_0 + Z_446_3_1 + Z_446_3_2 + Z_446_3_3
   + Z_446_3_4 <= 1
 constraint1_4465: Z_446_5_0 + Z_446_5_1 + Z_446_5_2 + Z_446_5_3
   + Z_446_5_4 <= 1
 constraint1_4464: Z_446_4_0 + Z_446_4_1 + Z_446_4_2 + Z_446_4_3
   + Z_446_4_4 <= 1
 constraint2_1150: <= 1
 constraint2_1151: <= 1
 constraint2_1152: <= 1
 constraint2_1153: <= 1
 constraint2_2740: Z_274_0_0 <= 1
 constraint2_2741: Z_274_0_1 <= 1
 constraint2_2742: Z_274_0_2 <= 1
 constraint2_2743: Z_274_0_3 <= 1
 constraint2_3960: Z_396_0_0 <= 1
 constraint2_3961: Z_396_0_1 <= 1
 constraint2_3962: Z_396_0_2 <= 1
 constraint2_3963: Z_396_0_3 <= 1
 constraint2_4460: Z_446_7_0 + Z_446_2_0 + Z_446_6_0 + Z_446_1_0
   + Z_446_0_0 + Z_446_8_0 + Z_446_3_0 + Z_446_5_0 + Z_446_4_0 <= 1
 constraint2_4461: Z_446_7_1 + Z_446_2_1 + Z_446_6_1 + Z_446_1_1
   + Z_446_0_1 + Z_446_8_1 + Z_446_3_1 + Z_446_5_1 + Z_446_4_1 <= 1
 constraint2_4462: Z_446_7_2 + Z_446_2_2 + Z_446_6_2 + Z_446_1_2
   + Z_446_0_2 + Z_446_8_2 + Z_446_3_2 + Z_446_5_2 + Z_446_4_2 <= 1
 constraint2_4463: Z_446_7_3 + Z_446_2_3 + Z_446_6_3 + Z_446_1_3
   + Z_446_0_3 + Z_446_8_3 + Z_446_3_3 + Z_446_5_3 + Z_446_4_3 <= 1
Bounds
Binaries
 Z_274_0_0 Z_274_0_1 Z_274_0_2 Z_274_0_3 Z_274_0_4 Z_396_0_0 Z_396_0_1
 Z_396_0_2 Z_396_0_3 Z_396_0_4 Z_446_7_0 Z_446_7_1 Z_446_7_2 Z_446_7_3
 Z_446_7_4 Z_446_2_0 Z_446_2_1 Z_446_2_2 Z_446_2_3 Z_446_2_4 Z_446_6_0
 Z_446_6_1 Z_446_6_2 Z_446_6_3 Z_446_6_4 Z_446_1_0 Z_446_1_1 Z_446_1_2
 Z_446_1_3 Z_446_1_4 Z_446_0_0 Z_446_0_1 Z_446_0_2 Z_446_0_3 Z_446_0_4
 Z_446_8_0 Z_446_8_1 Z_446_8_2 Z_446_8_3 Z_446_8_4 Z_446_3_0 Z_446_3_1
 Z_446_3_2 Z_446_3_3 Z_446_3_4 Z_446_5_0 Z_446_5_1 Z_446_5_2 Z_446_5_3
 Z_446_5_4 Z_446_4_0 Z_446_4_1 Z_446_4_2 Z_446_4_3 Z_446_4_4
End
