ilp_joint/output/refraction_ilp.mps
NAME refraction_srl_ilp
* Max problem is converted into Min one
ROWS
 N  OBJ
 L  constraint1_2740
 L  constraint1_3960
 L  constraint1_4467
 L  constraint1_4462
 L  constraint1_4466
 L  constraint1_4461
 L  constraint1_4460
 L  constraint1_4468
 L  constraint1_4463
 L  constraint1_4465
 L  constraint1_4464
 L  constraint2_1150
 L  constraint2_1151
 L  constraint2_1152
 L  constraint2_1153
 L  constraint2_2740
 L  constraint2_2741
 L  constraint2_2742
 L  constraint2_2743
 L  constraint2_3960
 L  constraint2_3961
 L  constraint2_3962
 L  constraint2_3963
 L  constraint2_4460
 L  constraint2_4461
 L  constraint2_4462
 L  constraint2_4463
COLUMNS
    MARKER    'MARKER'                 'INTORG'
    Z_274_0_0  OBJ       -5.2262988303915367e-03
    Z_274_0_0  constraint1_2740  1
    Z_274_0_0  constraint2_2740  1
    Z_274_0_1  OBJ       -7.5672323672596997e-01
    Z_274_0_1  constraint1_2740  1
    Z_274_0_1  constraint2_2741  1
    Z_274_0_2  OBJ       -3.1825765218018477e-02
    Z_274_0_2  constraint1_2740  1
    Z_274_0_2  constraint2_2742  1
    Z_274_0_3  OBJ       -1.1109282274295175e-03
    Z_274_0_3  constraint1_2740  1
    Z_274_0_3  constraint2_2743  1
    Z_274_0_4  OBJ       -1.0511377099819051e-01
    Z_274_0_4  constraint1_2740  1
    Z_396_0_0  OBJ       -4.1987115606347738e-03
    Z_396_0_0  constraint1_3960  1
    Z_396_0_0  constraint2_3960  1
    Z_396_0_1  OBJ       -3.8115110935790192e-01
    Z_396_0_1  constraint1_3960  1
    Z_396_0_1  constraint2_3961  1
    Z_396_0_2  OBJ       -1.0328883945785682e-01
    Z_396_0_2  constraint1_3960  1
    Z_396_0_2  constraint2_3962  1
    Z_396_0_3  OBJ       -9.1776403348863052e-03
    Z_396_0_3  constraint1_3960  1
    Z_396_0_3  constraint2_3963  1
    Z_396_0_4  OBJ       -4.0218369928872016e-01
    Z_396_0_4  constraint1_3960  1
    Z_446_7_0  OBJ       -4.1062866774177739e-02
    Z_446_7_0  constraint1_4467  1
    Z_446_7_0  constraint2_4460  1
    Z_446_7_1  OBJ       -1.8747476045010036e-02
    Z_446_7_1  constraint1_4467  1
    Z_446_7_1  constraint2_4461  1
    Z_446_7_2  OBJ       -7.9651862319637563e-03
    Z_446_7_2  constraint1_4467  1
    Z_446_7_2  constraint2_4462  1
    Z_446_7_3  OBJ       -2.4165431767195683e-02
    Z_446_7_3  constraint1_4467  1
    Z_446_7_3  constraint2_4463  1
    Z_446_7_4  OBJ       -8.0805903918165278e-01
    Z_446_7_4  constraint1_4467  1
    Z_446_2_0  OBJ       -1.3368786106313199e-03
    Z_446_2_0  constraint1_4462  1
    Z_446_2_0  constraint2_4460  1
    Z_446_2_1  OBJ       -4.1279375517913348e-03
    Z_446_2_1  constraint1_4462  1
    Z_446_2_1  constraint2_4461  1
    Z_446_2_2  OBJ       -7.4431149102742906e-03
    Z_446_2_2  constraint1_4462  1
    Z_446_2_2  constraint2_4462  1
    Z_446_2_3  OBJ       -5.2572501160956372e-03
    Z_446_2_3  constraint1_4462  1
    Z_446_2_3  constraint2_4463  1
    Z_446_2_4  OBJ       -8.8183481881120740e-01
    Z_446_2_4  constraint1_4462  1
    Z_446_6_0  OBJ       -1.3368786106313199e-03
    Z_446_6_0  constraint1_4466  1
    Z_446_6_0  constraint2_4460  1
    Z_446_6_1  OBJ       -4.1279375517913348e-03
    Z_446_6_1  constraint1_4466  1
    Z_446_6_1  constraint2_4461  1
    Z_446_6_2  OBJ       -7.4431149102742906e-03
    Z_446_6_2  constraint1_4466  1
    Z_446_6_2  constraint2_4462  1
    Z_446_6_3  OBJ       -5.2572501160956372e-03
    Z_446_6_3  constraint1_4466  1
    Z_446_6_3  constraint2_4463  1
    Z_446_6_4  OBJ       -8.8183481881120740e-01
    Z_446_6_4  constraint1_4466  1
    Z_446_1_0  OBJ       -5.7734173763033265e-03
    Z_446_1_0  constraint1_4461  1
    Z_446_1_0  constraint2_4460  1
    Z_446_1_1  OBJ       -2.9750682136333397e-03
    Z_446_1_1  constraint1_4461  1
    Z_446_1_1  constraint2_4461  1
    Z_446_1_2  OBJ       -7.2809688186318130e-03
    Z_446_1_2  constraint1_4461  1
    Z_446_1_2  constraint2_4462  1
    Z_446_1_3  OBJ       -5.2954635318621830e-03
    Z_446_1_3  constraint1_4461  1
    Z_446_1_3  constraint2_4463  1
    Z_446_1_4  OBJ       -8.7867508205956935e-01
    Z_446_1_4  constraint1_4461  1
    Z_446_0_0  OBJ       -1.4906851137183037e-03
    Z_446_0_0  constraint1_4460  1
    Z_446_0_0  constraint2_4460  1
    Z_446_0_1  OBJ       -7.3252574927253013e-04
    Z_446_0_1  constraint1_4460  1
    Z_446_0_1  constraint2_4461  1
    Z_446_0_2  OBJ       -1.0022131146529049e-02
    Z_446_0_2  constraint1_4460  1
    Z_446_0_2  constraint2_4462  1
    Z_446_0_3  OBJ       -5.0250492167503817e-03
    Z_446_0_3  constraint1_4460  1
    Z_446_0_3  constraint2_4463  1
    Z_446_0_4  OBJ       -8.8272960877372986e-01
    Z_446_0_4  constraint1_4460  1
    Z_446_8_0  OBJ       -8.6679664043946333e-03
    Z_446_8_0  constraint1_4468  1
    Z_446_8_0  constraint2_4460  1
    Z_446_8_1  OBJ       -5.9905755984784523e-02
    Z_446_8_1  constraint1_4468  1
    Z_446_8_1  constraint2_4461  1
    Z_446_8_2  OBJ       -8.4747389161866898e-03
    Z_446_8_2  constraint1_4468  1
    Z_446_8_2  constraint2_4462  1
    Z_446_8_3  OBJ       -4.6888098627574171e-03
    Z_446_8_3  constraint1_4468  1
    Z_446_8_3  constraint2_4463  1
    Z_446_8_4  OBJ       -8.1826272883187690e-01
    Z_446_8_4  constraint1_4468  1
    Z_446_3_0  OBJ       -2.1412043738701907e-03
    Z_446_3_0  constraint1_4463  1
    Z_446_3_0  constraint2_4460  1
    Z_446_3_1  OBJ       -1.4220159579126927e-02
    Z_446_3_1  constraint1_4463  1
    Z_446_3_1  constraint2_4461  1
    Z_446_3_2  OBJ       -7.2717047202248156e-02
    Z_446_3_2  constraint1_4463  1
    Z_446_3_2  constraint2_4462  1
    Z_446_3_3  OBJ       -1.8172033952461909e-02
    Z_446_3_3  constraint1_4463  1
    Z_446_3_3  constraint2_4463  1
    Z_446_3_4  OBJ       -7.9274955489229271e-01
    Z_446_3_4  constraint1_4463  1
    Z_446_5_0  OBJ       -4.2199539748036619e-01
    Z_446_5_0  constraint1_4465  1
    Z_446_5_0  constraint2_4460  1
    Z_446_5_1  OBJ       -1.3561386308883586e-01
    Z_446_5_1  constraint1_4465  1
    Z_446_5_1  constraint2_4461  1
    Z_446_5_2  OBJ       -2.6122842656595181e-03
    Z_446_5_2  constraint1_4465  1
    Z_446_5_2  constraint2_4462  1
    Z_446_5_3  OBJ       -5.0427804029790635e-02
    Z_446_5_3  constraint1_4465  1
    Z_446_5_3  constraint2_4463  1
    Z_446_5_4  OBJ       -2.8935065113534802e-01
    Z_446_5_4  constraint1_4465  1
    Z_446_4_0  OBJ       -2.1412043738701907e-03
    Z_446_4_0  constraint1_4464  1
    Z_446_4_0  constraint2_4460  1
    Z_446_4_1  OBJ       -1.4220159579126927e-02
    Z_446_4_1  constraint1_4464  1
    Z_446_4_1  constraint2_4461  1
    Z_446_4_2  OBJ       -7.2717047202248156e-02
    Z_446_4_2  constraint1_4464  1
    Z_446_4_2  constraint2_4462  1
    Z_446_4_3  OBJ       -1.8172033952461909e-02
    Z_446_4_3  constraint1_4464  1
    Z_446_4_3  constraint2_4463  1
    Z_446_4_4  OBJ       -7.9274955489229271e-01
    Z_446_4_4  constraint1_4464  1
    MARKER    'MARKER'                 'INTEND'
RHS
    RHS1      constraint1_2740  1
    RHS1      constraint1_3960  1
    RHS1      constraint1_4467  1
    RHS1      constraint1_4462  1
    RHS1      constraint1_4466  1
    RHS1      constraint1_4461  1
    RHS1      constraint1_4460  1
    RHS1      constraint1_4468  1
    RHS1      constraint1_4463  1
    RHS1      constraint1_4465  1
    RHS1      constraint1_4464  1
    RHS1      constraint2_1150  1
    RHS1      constraint2_1151  1
    RHS1      constraint2_1152  1
    RHS1      constraint2_1153  1
    RHS1      constraint2_2740  1
    RHS1      constraint2_2741  1
    RHS1      constraint2_2742  1
    RHS1      constraint2_2743  1
    RHS1      constraint2_3960  1
    RHS1      constraint2_3961  1
    RHS1      constraint2_3962  1
    RHS1      constraint2_3963  1
    RHS1      constraint2_4460  1
    RHS1      constraint2_4461  1
    RHS1      constraint2_4462  1
    RHS1      constraint2_4463  1
BOUNDS
 UP BND1      Z_274_0_0  1
 UP BND1      Z_274_0_1  1
 UP BND1      Z_274_0_2  1
 UP BND1      Z_274_0_3  1
 UP BND1      Z_274_0_4  1
 UP BND1      Z_396_0_0  1
 UP BND1      Z_396_0_1  1
 UP BND1      Z_396_0_2  1
 UP BND1      Z_396_0_3  1
 UP BND1      Z_396_0_4  1
 UP BND1      Z_446_7_0  1
 UP BND1      Z_446_7_1  1
 UP BND1      Z_446_7_2  1
 UP BND1      Z_446_7_3  1
 UP BND1      Z_446_7_4  1
 UP BND1      Z_446_2_0  1
 UP BND1      Z_446_2_1  1
 UP BND1      Z_446_2_2  1
 UP BND1      Z_446_2_3  1
 UP BND1      Z_446_2_4  1
 UP BND1      Z_446_6_0  1
 UP BND1      Z_446_6_1  1
 UP BND1      Z_446_6_2  1
 UP BND1      Z_446_6_3  1
 UP BND1      Z_446_6_4  1
 UP BND1      Z_446_1_0  1
 UP BND1      Z_446_1_1  1
 UP BND1      Z_446_1_2  1
 UP BND1      Z_446_1_3  1
 UP BND1      Z_446_1_4  1
 UP BND1      Z_446_0_0  1
 UP BND1      Z_446_0_1  1
 UP BND1      Z_446_0_2  1
 UP BND1      Z_446_0_3  1
 UP BND1      Z_446_0_4  1
 UP BND1      Z_446_8_0  1
 UP BND1      Z_446_8_1  1
 UP BND1      Z_446_8_2  1
 UP BND1      Z_446_8_3  1
 UP BND1      Z_446_8_4  1
 UP BND1      Z_446_3_0  1
 UP BND1      Z_446_3_1  1
 UP BND1      Z_446_3_2  1
 UP BND1      Z_446_3_3  1
 UP BND1      Z_446_3_4  1
 UP BND1      Z_446_5_0  1
 UP BND1      Z_446_5_1  1
 UP BND1      Z_446_5_2  1
 UP BND1      Z_446_5_3  1
 UP BND1      Z_446_5_4  1
 UP BND1      Z_446_4_0  1
 UP BND1      Z_446_4_1  1
 UP BND1      Z_446_4_2  1
 UP BND1      Z_446_4_3  1
 UP BND1      Z_446_4_4  1
QUADOBJ
    Z_274_0_0  Z_396_0_0  -1.9999999999999996e-01
    Z_274_0_0  Z_446_2_0  -2.7911217378795223e-02
    Z_274_0_0  Z_446_6_0  -2.0730046538771405e-05
    Z_274_0_0  Z_446_8_0  -6.5069687033224397e-02
    Z_274_0_0  Z_446_3_0  -6.8135688490882735e-03
    Z_274_0_0  Z_446_5_0  -3.5584164382189036e-04
    Z_274_0_0  Z_446_4_0  -6.8135688490882735e-03
    Z_274_0_1  Z_396_0_1  -1.9999999999999996e-01
    Z_274_0_1  Z_446_2_1  -2.7911217378795223e-02
    Z_274_0_1  Z_446_6_1  -2.0730046538771405e-05
    Z_274_0_1  Z_446_8_1  -6.5069687033224397e-02
    Z_274_0_1  Z_446_3_1  -6.8135688490882735e-03
    Z_274_0_1  Z_446_5_1  -3.5584164382189036e-04
    Z_274_0_1  Z_446_4_1  -6.8135688490882735e-03
    Z_274_0_2  Z_396_0_2  -1.9999999999999996e-01
    Z_274_0_2  Z_446_2_2  -2.7911217378795223e-02
    Z_274_0_2  Z_446_6_2  -2.0730046538771405e-05
    Z_274_0_2  Z_446_8_2  -6.5069687033224397e-02
    Z_274_0_2  Z_446_3_2  -6.8135688490882735e-03
    Z_274_0_2  Z_446_5_2  -3.5584164382189036e-04
    Z_274_0_2  Z_446_4_2  -6.8135688490882735e-03
    Z_274_0_3  Z_396_0_3  -1.9999999999999996e-01
    Z_274_0_3  Z_446_2_3  -2.7911217378795223e-02
    Z_274_0_3  Z_446_6_3  -2.0730046538771405e-05
    Z_274_0_3  Z_446_8_3  -6.5069687033224397e-02
    Z_274_0_3  Z_446_3_3  -6.8135688490882735e-03
    Z_274_0_3  Z_446_5_3  -3.5584164382189036e-04
    Z_274_0_3  Z_446_4_3  -6.8135688490882735e-03
    Z_274_0_4  Z_396_0_4  -1.9999999999999996e-01
    Z_274_0_4  Z_446_2_4  -2.7911217378795223e-02
    Z_274_0_4  Z_446_6_4  -2.0730046538771405e-05
    Z_274_0_4  Z_446_8_4  -6.5069687033224397e-02
    Z_274_0_4  Z_446_3_4  -6.8135688490882735e-03
    Z_274_0_4  Z_446_5_4  -3.5584164382189036e-04
    Z_274_0_4  Z_446_4_4  -6.8135688490882735e-03
    Z_396_0_0  Z_446_2_0  -2.7911217378795223e-02
    Z_396_0_0  Z_446_6_0  -1.2365010030745031e-05
    Z_396_0_0  Z_446_8_0  -6.5069687033224397e-02
    Z_396_0_0  Z_446_3_0  -4.0641417281227941e-03
    Z_396_0_0  Z_446_5_0  -2.1225159755358878e-04
    Z_396_0_0  Z_446_4_0  -4.0641417281227941e-03
    Z_396_0_1  Z_446_2_1  -2.7911217378795223e-02
    Z_396_0_1  Z_446_6_1  -1.2365010030745031e-05
    Z_396_0_1  Z_446_8_1  -6.5069687033224397e-02
    Z_396_0_1  Z_446_3_1  -4.0641417281227941e-03
    Z_396_0_1  Z_446_5_1  -2.1225159755358878e-04
    Z_396_0_1  Z_446_4_1  -4.0641417281227941e-03
    Z_396_0_2  Z_446_2_2  -2.7911217378795223e-02
    Z_396_0_2  Z_446_6_2  -1.2365010030745031e-05
    Z_396_0_2  Z_446_8_2  -6.5069687033224397e-02
    Z_396_0_2  Z_446_3_2  -4.0641417281227941e-03
    Z_396_0_2  Z_446_5_2  -2.1225159755358878e-04
    Z_396_0_2  Z_446_4_2  -4.0641417281227941e-03
    Z_396_0_3  Z_446_2_3  -2.7911217378795223e-02
    Z_396_0_3  Z_446_6_3  -1.2365010030745031e-05
    Z_396_0_3  Z_446_8_3  -6.5069687033224397e-02
    Z_396_0_3  Z_446_3_3  -4.0641417281227941e-03
    Z_396_0_3  Z_446_5_3  -2.1225159755358878e-04
    Z_396_0_3  Z_446_4_3  -4.0641417281227941e-03
    Z_396_0_4  Z_446_2_4  -2.7911217378795223e-02
    Z_396_0_4  Z_446_6_4  -1.2365010030745031e-05
    Z_396_0_4  Z_446_8_4  -6.5069687033224397e-02
    Z_396_0_4  Z_446_3_4  -4.0641417281227941e-03
    Z_396_0_4  Z_446_5_4  -2.1225159755358878e-04
    Z_396_0_4  Z_446_4_4  -4.0641417281227941e-03
ENDATA
