ilp_joint/output/refraction_ilp.sol
# Solution for model refraction_srl_ilp
# Objective value = 8.4967649498180666e+00
Z_274_0_0 0
Z_274_0_1 1
Z_274_0_2 0
Z_274_0_3 0
Z_274_0_4 0
Z_396_0_0 0
Z_396_0_1 1
Z_396_0_2 0
Z_396_0_3 0
Z_396_0_4 0
Z_446_7_0 0
Z_446_7_1 0
Z_446_7_2 0
Z_446_7_3 0
Z_446_7_4 1
Z_446_2_0 0
Z_446_2_1 0
Z_446_2_2 0
Z_446_2_3 0
Z_446_2_4 1
Z_446_6_0 0
Z_446_6_1 0
Z_446_6_2 0
Z_446_6_3 0
Z_446_6_4 1
Z_446_1_0 0
Z_446_1_1 0
Z_446_1_2 0
Z_446_1_3 0
Z_446_1_4 1
Z_446_0_0 0
Z_446_0_1 0
Z_446_0_2 0
Z_446_0_3 0
Z_446_0_4 1
Z_446_8_0 0
Z_446_8_1 0
Z_446_8_2 0
Z_446_8_3 0
Z_446_8_4 1
Z_446_3_0 0
Z_446_3_1 0
Z_446_3_2 0
Z_446_3_3 0
Z_446_3_4 1
Z_446_5_0 1
Z_446_5_1 0
Z_446_5_2 0
Z_446_5_3 0
Z_446_5_4 0
Z_446_4_0 0
Z_446_4_1 0
Z_446_4_2 0
Z_446_4_3 0
Z_446_4_4 1
